(set-logic QF_BV)
(declare-fun _substvar_76_ () (_ BitVec 64))
(declare-fun _substvar_83_ () (_ BitVec 64))
(declare-fun _substvar_84_ () (_ BitVec 64))
(declare-fun _substvar_68_ () (_ BitVec 64))
(declare-fun _substvar_79_ () (_ BitVec 64))
(assert (= _substvar_83_ (bvsdiv _substvar_76_ _substvar_79_)))
(assert (= _substvar_84_ (bvmul _substvar_83_ ((_ extract 63 0) (_ bv5 64)))))
(assert (= _substvar_68_ _substvar_84_))
(assert (= true (bvsle ((_ extract 63 0) (_ bv604800 64)) _substvar_68_)))
(check-sat)
(exit)
